; POP DUP1 PUSH cw_1 SSTORE ADD POP => POP PUSH cw_1 SSTORE POP
(set-option :produce-proofs true)
; 
(set-info :status unknown)
(declare-fun storage_t ((_ BitVec 256) (_ BitVec 256) (_ BitVec 256) (_ BitVec 256) (_ BitVec 256) Int (_ BitVec 256)) (_ BitVec 256))
(declare-fun w_1 () (_ BitVec 256))
(declare-fun storage_s ((_ BitVec 256) (_ BitVec 256) (_ BitVec 256) (_ BitVec 256) (_ BitVec 256) Int (_ BitVec 256)) (_ BitVec 256))
(declare-fun exc_halt_t (Int) Bool)
(declare-fun exc_halt_s (Int) Bool)
(declare-fun stack_t ((_ BitVec 256) (_ BitVec 256) (_ BitVec 256) (_ BitVec 256) (_ BitVec 256) Int (_ BitVec 6)) (_ BitVec 256))
(declare-fun stack_s ((_ BitVec 256) (_ BitVec 256) (_ BitVec 256) (_ BitVec 256) (_ BitVec 256) Int (_ BitVec 6)) (_ BitVec 256))
(declare-fun sc_t (Int) (_ BitVec 6))
(declare-fun sc_s (Int) (_ BitVec 6))
(declare-fun used_gas_t ((_ BitVec 256) (_ BitVec 256) (_ BitVec 256) (_ BitVec 256) (_ BitVec 256) Int) Int)
(declare-fun used_gas_s ((_ BitVec 256) (_ BitVec 256) (_ BitVec 256) (_ BitVec 256) (_ BitVec 256) Int) Int)
(assert
 (exists ((x_0 (_ BitVec 256)) (x_1 (_ BitVec 256)) (x_2 (_ BitVec 256)) (x_SSTORE_0 (_ BitVec 256)) )(let (($x9936 (forall ((w (_ BitVec 256)) )(let ((?x9933 (storage_t x_0 x_1 x_2 x_SSTORE_0 w_1 4 w)))
 (let ((?x9934 (storage_s x_0 x_1 x_2 x_SSTORE_0 w_1 6 w)))
 (= ?x9934 ?x9933))))
 ))
 (let (($x3723 (exc_halt_t 4)))
 (let (($x772 (exc_halt_s 6)))
 (let (($x4774 (= $x772 $x3723)))
 (let (($x4760 (forall ((n (_ BitVec 6)) )(let ((?x9668 (stack_t x_0 x_1 x_2 x_SSTORE_0 w_1 4 n)))
 (let ((?x9940 (stack_s x_0 x_1 x_2 x_SSTORE_0 w_1 6 n)))
 (let (($x9942 (= ?x9940 ?x9668)))
 (let ((?x3757 (sc_t 4)))
 (let (($x6104 (bvsle ?x3757 n)))
 (or $x6104 $x9942)))))))
 ))
 (let ((?x3757 (sc_t 4)))
 (let ((?x926 (sc_s 6)))
 (let (($x5923 (= ?x926 ?x3757)))
 (let ((?x9945 (used_gas_t x_0 x_1 x_2 x_SSTORE_0 w_1 0)))
 (let ((?x9578 (used_gas_s x_0 x_1 x_2 x_SSTORE_0 w_1 0)))
 (let (($x9946 (= ?x9578 ?x9945)))
 (let (($x9958 (forall ((w (_ BitVec 256)) )(let ((?x9955 (storage_t x_0 x_1 x_2 x_SSTORE_0 w_1 0 w)))
 (let ((?x9956 (storage_s x_0 x_1 x_2 x_SSTORE_0 w_1 0 w)))
 (= ?x9956 ?x9955))))
 ))
 (let (($x56 (exc_halt_t 0)))
 (let (($x57 (exc_halt_s 0)))
 (let (($x58 (= $x57 $x56)))
 (let (($x600 (forall ((n (_ BitVec 6)) )(let ((?x9960 (stack_t x_0 x_1 x_2 x_SSTORE_0 w_1 0 n)))
 (let ((?x9961 (stack_s x_0 x_1 x_2 x_SSTORE_0 w_1 0 n)))
 (let (($x9962 (= ?x9961 ?x9960)))
 (let ((?x63 (sc_t 0)))
 (let (($x4561 (bvsle ?x63 n)))
 (or $x4561 $x9962)))))))
 ))
 (let ((?x63 (sc_t 0)))
 (let ((?x72 (sc_s 0)))
 (let (($x73 (= ?x72 ?x63)))
 (let (($x10548 (= $x3723 (or (exc_halt_t 3) (not (bvsle (_ bv0 6) (bvadd (_ bv63 6) (sc_t 3))))))))
 (let (($x1139 (forall ((w (_ BitVec 256)) )(let ((?x9981 (storage_t x_0 x_1 x_2 x_SSTORE_0 w_1 3 w)))
 (let ((?x9933 (storage_t x_0 x_1 x_2 x_SSTORE_0 w_1 4 w)))
 (= ?x9933 ?x9981))))
 ))
 (let (($x4571 (forall ((n (_ BitVec 6)) )(let ((?x2012 (sc_t 3)))
 (let ((?x4070 (bvadd (_ bv63 6) ?x2012)))
 (let (($x5201 (bvsle ?x4070 n)))
 (let ((?x9974 (stack_t x_0 x_1 x_2 x_SSTORE_0 w_1 3 n)))
 (let ((?x9668 (stack_t x_0 x_1 x_2 x_SSTORE_0 w_1 4 n)))
 (or (= ?x9668 ?x9974) $x5201)))))))
 ))
 (let (($x5750 (= (used_gas_t x_0 x_1 x_2 x_SSTORE_0 w_1 4) (+ 2 (used_gas_t x_0 x_1 x_2 x_SSTORE_0 w_1 3)))))
 (let (($x10336 (exc_halt_t 3)))
 (let (($x4736 (= $x10336 (or (exc_halt_t 2) (not (bvsle (_ bv0 6) (bvadd (_ bv62 6) (sc_t 2))))))))
 (let (($x4572 (forall ((n (_ BitVec 6)) )(let ((?x4056 (sc_t 2)))
 (let ((?x6845 (bvadd (_ bv62 6) ?x4056)))
 (let (($x6677 (bvsle ?x6845 n)))
 (let ((?x9998 (stack_t x_0 x_1 x_2 x_SSTORE_0 w_1 2 n)))
 (let ((?x9974 (stack_t x_0 x_1 x_2 x_SSTORE_0 w_1 3 n)))
 (or (= ?x9974 ?x9998) $x6677)))))))
 ))
 (let (($x4737 (= (stack_t x_0 x_1 x_2 x_SSTORE_0 w_1 2 (bvadd (_ bv62 6) (sc_t 2))) (_ bv0 256))))
 (let ((?x485 (storage_t x_0 x_1 x_2 x_SSTORE_0 w_1 2 (stack_t x_0 x_1 x_2 x_SSTORE_0 w_1 2 (bvadd (_ bv63 6) (sc_t 2))))))
 (let ((?x10022 (used_gas_t x_0 x_1 x_2 x_SSTORE_0 w_1 2)))
 (let ((?x1079 (+ ?x10022 (ite (= ?x485 (_ bv0 256)) (ite $x4737 5000 20000) (ite $x4737 (- 10000) 5000)))))
 (let ((?x9990 (used_gas_t x_0 x_1 x_2 x_SSTORE_0 w_1 3)))
 (let (($x4588 (forall ((w (_ BitVec 256)) )(let ((?x9624 (storage_t x_0 x_1 x_2 x_SSTORE_0 w_1 2 w)))
 (let (($x5114 (= w (stack_t x_0 x_1 x_2 x_SSTORE_0 w_1 2 (bvadd (_ bv63 6) (sc_t 2))))))
 (let ((?x570 (ite $x5114 (stack_t x_0 x_1 x_2 x_SSTORE_0 w_1 2 (bvadd (_ bv62 6) (sc_t 2))) ?x9624)))
 (let ((?x9981 (storage_t x_0 x_1 x_2 x_SSTORE_0 w_1 3 w)))
 (= ?x9981 ?x570))))))
 ))
 (let (($x390 (not (= ((_ extract 6 6) (bvadd (_ bv1 7) (concat (_ bv0 1) (sc_t 1)))) (_ bv0 1)))))
 (let (($x1920 (exc_halt_t 1)))
 (let (($x903 (exc_halt_t 2)))
 (let (($x9144 (= $x903 (or $x1920 $x390))))
 (let (($x1236 (forall ((w (_ BitVec 256)) )(let ((?x9535 (storage_t x_0 x_1 x_2 x_SSTORE_0 w_1 1 w)))
 (let ((?x9624 (storage_t x_0 x_1 x_2 x_SSTORE_0 w_1 2 w)))
 (= ?x9624 ?x9535))))
 ))
 (let (($x2119 (forall ((n (_ BitVec 6)) )(let ((?x9556 (stack_t x_0 x_1 x_2 x_SSTORE_0 w_1 1 n)))
 (let ((?x9998 (stack_t x_0 x_1 x_2 x_SSTORE_0 w_1 2 n)))
 (let ((?x4023 (sc_t 1)))
 (let (($x717 (bvsle ?x4023 n)))
 (or $x717 (= ?x9998 ?x9556)))))))
 ))
 (let ((?x4056 (sc_t 2)))
 (let (($x8461 (= ?x4056 (bvadd (_ bv1 6) (sc_t 1)))))
 (let (($x644 (forall ((w (_ BitVec 256)) )(let ((?x9955 (storage_t x_0 x_1 x_2 x_SSTORE_0 w_1 0 w)))
 (let ((?x9535 (storage_t x_0 x_1 x_2 x_SSTORE_0 w_1 1 w)))
 (= ?x9535 ?x9955))))
 ))
 (let (($x1237 (forall ((n (_ BitVec 6)) )(let ((?x63 (sc_t 0)))
 (let ((?x741 (bvadd (_ bv63 6) ?x63)))
 (let (($x9323 (bvsle ?x741 n)))
 (let ((?x9960 (stack_t x_0 x_1 x_2 x_SSTORE_0 w_1 0 n)))
 (let ((?x9556 (stack_t x_0 x_1 x_2 x_SSTORE_0 w_1 1 n)))
 (or (= ?x9556 ?x9960) $x9323)))))))
 ))
 (let (($x304 (= $x772 (or (exc_halt_s 5) (not (bvsle (_ bv0 6) (bvadd (_ bv63 6) (sc_s 5))))))))
 (let (($x2618 (forall ((w (_ BitVec 256)) )(let ((?x3551 (storage_s x_0 x_1 x_2 x_SSTORE_0 w_1 5 w)))
 (let ((?x9934 (storage_s x_0 x_1 x_2 x_SSTORE_0 w_1 6 w)))
 (= ?x9934 ?x3551))))
 ))
 (let (($x4606 (forall ((n (_ BitVec 6)) )(let ((?x4423 (stack_s x_0 x_1 x_2 x_SSTORE_0 w_1 5 n)))
 (let ((?x9940 (stack_s x_0 x_1 x_2 x_SSTORE_0 w_1 6 n)))
 (or (bvsle (bvadd (_ bv63 6) (sc_s 5)) n) (= ?x9940 ?x4423)))))
 ))
 (let (($x177 (= (used_gas_s x_0 x_1 x_2 x_SSTORE_0 w_1 6) (+ 2 (used_gas_s x_0 x_1 x_2 x_SSTORE_0 w_1 5)))))
 (let (($x3979 (exc_halt_s 5)))
 (let (($x4848 (= $x3979 (or (exc_halt_s 4) (not (bvsle (_ bv0 6) (bvadd (_ bv62 6) (sc_s 4))))))))
 (let (($x404 (forall ((w (_ BitVec 256)) )(let ((?x4574 (storage_s x_0 x_1 x_2 x_SSTORE_0 w_1 4 w)))
 (let ((?x3551 (storage_s x_0 x_1 x_2 x_SSTORE_0 w_1 5 w)))
 (= ?x3551 ?x4574))))
 ))
 (let (($x4775 (forall ((n (_ BitVec 6)) )(let ((?x4305 (sc_s 4)))
 (let ((?x803 (bvadd (_ bv62 6) ?x4305)))
 (let (($x10926 (bvsle ?x803 n)))
 (let ((?x259 (stack_s x_0 x_1 x_2 x_SSTORE_0 w_1 4 n)))
 (let ((?x4423 (stack_s x_0 x_1 x_2 x_SSTORE_0 w_1 5 n)))
 (or (= ?x4423 ?x259) $x10926)))))))
 ))
 (let ((?x4305 (sc_s 4)))
 (let ((?x10988 (bvadd (_ bv63 6) ?x4305)))
 (let ((?x805 (sc_s 5)))
 (let (($x4871 (= ?x805 ?x10988)))
 (let ((?x4958 (used_gas_s x_0 x_1 x_2 x_SSTORE_0 w_1 5)))
 (let ((?x4819 (bvadd (stack_s x_0 x_1 x_2 x_SSTORE_0 w_1 4 ?x10988) (stack_s x_0 x_1 x_2 x_SSTORE_0 w_1 4 (bvadd (_ bv62 6) ?x4305)))))
 (let (($x64 (exc_halt_s 4)))
 (let (($x559 (= $x64 (or (exc_halt_s 3) (not (bvsle (_ bv0 6) (bvadd (_ bv62 6) (sc_s 3))))))))
 (let (($x4732 (forall ((n (_ BitVec 6)) )(let ((?x275 (sc_s 3)))
 (let ((?x7469 (bvadd (_ bv62 6) ?x275)))
 (let (($x6178 (bvsle ?x7469 n)))
 (let ((?x4668 (stack_s x_0 x_1 x_2 x_SSTORE_0 w_1 3 n)))
 (let ((?x259 (stack_s x_0 x_1 x_2 x_SSTORE_0 w_1 4 n)))
 (or (= ?x259 ?x4668) $x6178)))))))
 ))
 (let ((?x275 (sc_s 3)))
 (let ((?x7469 (bvadd (_ bv62 6) ?x275)))
 (let (($x11177 (= ?x4305 ?x7469)))
 (let (($x4776 (= (stack_s x_0 x_1 x_2 x_SSTORE_0 w_1 3 ?x7469) (_ bv0 256))))
 (let ((?x483 (storage_s x_0 x_1 x_2 x_SSTORE_0 w_1 3 (stack_s x_0 x_1 x_2 x_SSTORE_0 w_1 3 (bvadd (_ bv63 6) ?x275)))))
 (let ((?x4827 (used_gas_s x_0 x_1 x_2 x_SSTORE_0 w_1 3)))
 (let ((?x2996 (+ ?x4827 (ite (= ?x483 (_ bv0 256)) (ite $x4776 5000 20000) (ite $x4776 (- 10000) 5000)))))
 (let ((?x862 (used_gas_s x_0 x_1 x_2 x_SSTORE_0 w_1 4)))
 (let (($x2031 (forall ((w (_ BitVec 256)) )(let ((?x6422 (storage_s x_0 x_1 x_2 x_SSTORE_0 w_1 3 w)))
 (let (($x4699 (= w (stack_s x_0 x_1 x_2 x_SSTORE_0 w_1 3 (bvadd (_ bv63 6) (sc_s 3))))))
 (let ((?x4379 (ite $x4699 (stack_s x_0 x_1 x_2 x_SSTORE_0 w_1 3 (bvadd (_ bv62 6) (sc_s 3))) ?x6422)))
 (let ((?x4574 (storage_s x_0 x_1 x_2 x_SSTORE_0 w_1 4 w)))
 (= ?x4574 ?x4379))))))
 ))
 (let (($x247 (exc_halt_s 2)))
 (let (($x9626 (or $x247 (not (= ((_ extract 6 6) (bvadd (_ bv1 7) (concat (_ bv0 1) (sc_s 2)))) (_ bv0 1))))))
 (let (($x292 (exc_halt_s 3)))
 (let (($x6647 (= $x292 $x9626)))
 (let (($x5735 (forall ((w (_ BitVec 256)) )(let ((?x4919 (storage_s x_0 x_1 x_2 x_SSTORE_0 w_1 2 w)))
 (let ((?x6422 (storage_s x_0 x_1 x_2 x_SSTORE_0 w_1 3 w)))
 (= ?x6422 ?x4919))))
 ))
 (let (($x4414 (forall ((n (_ BitVec 6)) )(let ((?x371 (stack_s x_0 x_1 x_2 x_SSTORE_0 w_1 2 n)))
 (let ((?x4668 (stack_s x_0 x_1 x_2 x_SSTORE_0 w_1 3 n)))
 (let ((?x218 (sc_s 2)))
 (let (($x3598 (bvsle ?x218 n)))
 (or $x3598 (= ?x4668 ?x371)))))))
 ))
 (let (($x6679 (= ?x275 (bvadd (_ bv1 6) (sc_s 2)))))
 (let (($x8239 (not (bvsle (_ bv0 6) (bvadd (_ bv63 6) (sc_s 1))))))
 (let (($x4770 (not (= ((_ extract 6 6) (bvadd (_ bv1 7) (concat (_ bv0 1) (sc_s 1)))) (_ bv0 1)))))
 (let (($x189 (exc_halt_s 1)))
 (let (($x6814 (= $x247 (or $x189 $x4770 $x8239))))
 (let (($x4417 (forall ((w (_ BitVec 256)) )(let ((?x4741 (storage_s x_0 x_1 x_2 x_SSTORE_0 w_1 1 w)))
 (let ((?x4919 (storage_s x_0 x_1 x_2 x_SSTORE_0 w_1 2 w)))
 (= ?x4919 ?x4741))))
 ))
 (let (($x4477 (forall ((n (_ BitVec 6)) )(let ((?x154 (sc_s 1)))
 (let ((?x11178 (bvadd (_ bv63 6) ?x154)))
 (let (($x6612 (bvsle ?x11178 n)))
 (let ((?x4890 (stack_s x_0 x_1 x_2 x_SSTORE_0 w_1 1 n)))
 (let ((?x371 (stack_s x_0 x_1 x_2 x_SSTORE_0 w_1 2 n)))
 (or (= ?x371 ?x4890) $x6612)))))))
 ))
 (let ((?x218 (sc_s 2)))
 (let (($x10803 (= ?x218 (bvadd (_ bv1 6) (sc_s 1)))))
 (let ((?x222 (used_gas_s x_0 x_1 x_2 x_SSTORE_0 w_1 2)))
 (let ((?x154 (sc_s 1)))
 (let ((?x11178 (bvadd (_ bv63 6) ?x154)))
 (let ((?x149 (stack_s x_0 x_1 x_2 x_SSTORE_0 w_1 1 ?x11178)))
 (let (($x9996 (forall ((w (_ BitVec 256)) )(let ((?x9956 (storage_s x_0 x_1 x_2 x_SSTORE_0 w_1 0 w)))
 (let ((?x4741 (storage_s x_0 x_1 x_2 x_SSTORE_0 w_1 1 w)))
 (= ?x4741 ?x9956))))
 ))
 (let (($x4501 (forall ((n (_ BitVec 6)) )(let ((?x9961 (stack_s x_0 x_1 x_2 x_SSTORE_0 w_1 0 n)))
 (let ((?x4890 (stack_s x_0 x_1 x_2 x_SSTORE_0 w_1 1 n)))
 (let ((?x72 (sc_s 0)))
 (let ((?x10482 (bvadd (_ bv63 6) ?x72)))
 (let (($x5169 (bvsle ?x10482 n)))
 (or $x5169 (= ?x4890 ?x9961))))))))
 ))
 (let (($x389 (forall ((w (_ BitVec 256)) )(let (($x4699 (= w (stack_s x_0 x_1 x_2 x_SSTORE_0 w_1 3 (bvadd (_ bv63 6) (sc_s 3))))))
 (let ((?x9956 (storage_s x_0 x_1 x_2 x_SSTORE_0 w_1 0 w)))
 (= ?x9956 (ite $x4699 x_SSTORE_0 (_ bv0 256))))))
 ))
 (let (($x4657 (= ?x9578 0)))
 (let (($x11171 (not $x57)))
 (let (($x10427 (= (stack_s x_0 x_1 x_2 x_SSTORE_0 w_1 0 (_ bv2 6)) x_2)))
 (let (($x433 (= (stack_s x_0 x_1 x_2 x_SSTORE_0 w_1 0 (_ bv1 6)) x_1)))
 (let (($x297 (= (stack_s x_0 x_1 x_2 x_SSTORE_0 w_1 0 (_ bv0 6)) x_0)))
 (let (($x96 (= ?x72 (_ bv3 6))))
 (and $x96 $x297 $x433 $x10427 $x11171 $x4657 $x389 (= (used_gas_s x_0 x_1 x_2 x_SSTORE_0 w_1 1) (+ 2 ?x9578)) (= ?x154 (bvadd (_ bv63 6) ?x72)) $x4501 $x9996 (= $x189 (or $x57 (not (bvsle (_ bv0 6) (bvadd (_ bv63 6) ?x72))))) (= (stack_s x_0 x_1 x_2 x_SSTORE_0 w_1 2 (bvadd (_ bv63 6) ?x218)) ?x149) (= (stack_s x_0 x_1 x_2 x_SSTORE_0 w_1 2 ?x11178) ?x149) (= ?x222 (+ 3 (used_gas_s x_0 x_1 x_2 x_SSTORE_0 w_1 1))) $x10803 $x4477 $x4417 $x6814 (= (stack_s x_0 x_1 x_2 x_SSTORE_0 w_1 3 ?x218) w_1) (= ?x4827 (+ 3 ?x222)) $x6679 $x4414 $x5735 $x6647 $x2031 (= ?x862 ?x2996) $x11177 $x4732 $x559 (= (stack_s x_0 x_1 x_2 x_SSTORE_0 w_1 5 (bvadd (_ bv63 6) ?x805)) ?x4819) (= ?x4958 (+ 3 ?x862)) $x4871 $x4775 $x404 $x4848 $x177 (= ?x926 (bvadd (_ bv63 6) ?x805)) $x4606 $x2618 $x304 (= (used_gas_t x_0 x_1 x_2 x_SSTORE_0 w_1 1) (+ 2 ?x9945)) (= (sc_t 1) (bvadd (_ bv63 6) ?x63)) $x1237 $x644 (= $x1920 (or $x56 (not (bvsle (_ bv0 6) (bvadd (_ bv63 6) ?x63))))) (= (stack_t x_0 x_1 x_2 x_SSTORE_0 w_1 2 (sc_t 1)) w_1) (= ?x10022 (+ 3 (used_gas_t x_0 x_1 x_2 x_SSTORE_0 w_1 1))) $x8461 $x2119 $x1236 $x9144 $x4588 (= ?x9990 ?x1079) (= (sc_t 3) (bvadd (_ bv62 6) ?x4056)) $x4572 $x4736 $x5750 (= ?x3757 (bvadd (_ bv63 6) (sc_t 3))) $x4571 $x1139 $x10548 $x73 $x600 $x58 $x9958 $x9946 (not (and $x5923 $x4760 $x4774 $x9936))))))))))))))))))))))))))))))))))))))))))))))))))))))))))))))))))))))))))))))))))))))))))))))))))))
 )
(check-sat)
(get-proof)
